\ File written by Highs .lp filereader
minimize
 obj: +1 x1 +1 x2 +3 x3 +3 x4 +1 x5 +1 x6 +1 x7 +1 x8 +3 x9 +3 x10 +1 x11 +1 x12 +3 x13 +1 x14 +3 x15 +3 x16 +1 x17 +3 x18 +1 x19 +1 x20 +3 x21 +1 x22 +3 x23 +3 x24 +3 x25 +1 x26 +3 x27 +3 x28 +1 x29 +3 x30 +1 x31 +1 x32 +3 x33 +1 x34 +3 x35 +1 x36 +3 x37 +3 x38 +3 x39 +1 x40 +3 x41 +3 x42 +3 x43 +3 x44 +1 x45 +3 x46 +1 x47 +1 x48 +3 x49 +1 x50 +3 x51 +1 x52 +3 x53 +3 x54 +3 x55 +1 x56 +3 x57 +3 x58 +3 x59 +3 x60 +1 x61 +3 x62 +3 x63 +3 x64 +3 x65 +3 x66 +3 x67 +3 x68 +3 x69 +3 x70 +3 x71 +1 x72 +3 x73 +3 x74 +3 x75 +3 x76 +3 x77 +3 x78 +1 x79 +3 x80 
+3 x81 +3 x82 +1 x83 +3 x84 +1 x85 +3 x86 +1 x87 +3 x88 +3 x89 +3 x90 +3 x91 +3 x92 +1 x93 +3 x94 +3 x95 +3 x96 +1 x97 +3 x98 +1 x99 +3 x100 +1 x101 +3 x102 +3 x103 +1 x104 +3 x105 +1 x106 +3 x107 +1 x108 +1 x109 +3 x110 +1 x111 +1 x112 +0 x113 +0 x114 +0 x115 +0 x116 +0 x117 +0 x118 +0 x119 +0 x120 +0 x121 +0 x122 +0 x123 +0 x124 +0 x125 +0 x126 +0 x127 +0 x128 +0 x129 +0 x130 +0 x131 +0 x132 +0 x133 
st
 con1: +1 x1 +1 x2 +3 x3 +3 x4 +1 x7 +1 x8 +3 x9 +1 x19 +1 x20 +3 x21 +1 x22 +1 x47 +1 x48 +3 x49 +1 x50 +3 x63 +3 x64 +3 x65 +3 x66 +3 x67 +3 x68 +3 x69 +3 x70 +3 x71 +1 x72 +3 x73 = +1
 con2: +1 x2 +3 x3 +3 x4 +1 x5 +1 x8 +3 x9 +3 x10 +1 x19 +3 x21 +1 x22 +3 x23 +3 x24 +1 x31 +3 x33 +1 x34 +3 x35 +1 x36 +3 x37 +3 x38 +1 x47 +3 x49 +1 x50 +3 x51 +1 x52 +3 x53 +3 x54 = +1
 con3: +3 x3 +6 x4 +3 x5 +3 x6 +3 x9 +6 x10 +3 x13 +6 x15 +3 x16 +3 x17 +6 x18 +3 x21 +6 x23 +3 x24 +3 x25 +6 x27 +3 x28 +3 x29 +6 x30 +3 x33 +3 x35 +6 x37 +3 x38 +3 x39 +6 x41 +3 x42 +6 x43 +3 x44 +3 x45 +6 x46 +3 x49 +3 x51 +6 x53 +3 x54 +3 x55 +6 x57 +3 x58 +6 x59 +3 x60 +3 x61 +6 x62 = +3
 con4: +1 x7 +1 x8 +3 x9 +3 x10 +1 x20 +1 x22 +3 x24 +1 x32 +1 x34 +1 x36 +3 x38 +1 x48 +1 x50 +1 x52 +3 x54 +3 x66 +3 x69 +3 x71 +3 x73 +3 x76 +3 x78 +3 x80 +3 x82 +3 x84 +3 x86 +1 x87 = +1
 con5: +1 x1 +1 x2 +3 x3 +1 x7 +1 x8 +1 x11 +1 x12 +3 x13 +1 x14 +3 x15 +3 x16 +1 x19 +1 x20 +3 x25 +1 x26 +3 x63 +3 x64 +3 x65 +3 x66 +3 x88 +3 x89 +3 x90 +3 x91 +3 x92 +1 x93 +3 x94 = +1
 con6: +1 x2 +3 x3 +3 x4 +1 x8 +3 x9 +1 x11 +3 x13 +1 x14 +3 x15 +3 x16 +1 x17 +3 x18 +1 x19 +3 x21 +1 x22 +3 x25 +1 x26 +3 x27 +3 x28 +1 x47 +3 x49 +1 x50 +3 x55 +1 x56 +3 x57 +3 x58 = +1
 con7: +1 x7 +1 x8 +3 x9 +1 x12 +1 x14 +3 x16 +3 x18 +1 x20 +1 x22 +1 x26 +3 x28 +1 x48 +1 x50 +1 x56 +3 x58 +3 x66 +3 x69 +3 x71 +3 x73 +3 x90 +3 x92 +3 x94 +3 x96 +3 x98 +3 x100 +1 x101 = +1
 con8: +1 x6 +1 x8 +3 x9 +3 x10 +1 x14 +3 x16 +3 x18 +1 x22 +3 x24 +1 x26 +3 x28 +3 x30 +1 x34 +1 x36 +3 x38 +1 x40 +3 x42 +3 x44 +3 x46 +1 x50 +1 x52 +3 x54 +1 x56 +3 x58 +3 x60 +3 x62 = +1
 con9: +1 x1 +1 x2 +1 x7 +3 x21 +1 x22 +3 x23 +3 x24 +1 x31 +1 x32 +3 x33 +1 x34 +1 x47 +1 x48 +3 x51 +1 x52 +3 x63 +3 x67 +3 x68 +3 x69 +3 x74 +3 x75 +3 x76 +3 x81 +3 x82 +1 x83 +3 x84 = +1
 con10: +1 x1 +1 x2 +1 x7 +1 x11 +1 x12 +3 x13 +1 x14 +3 x21 +1 x22 +3 x27 +3 x28 +1 x47 +1 x48 +3 x55 +1 x56 +3 x63 +3 x67 +3 x68 +3 x69 +3 x88 +3 x89 +3 x90 +3 x95 +3 x96 +1 x97 +3 x98 = +1
 con11: +1 x2 +1 x11 +3 x13 +1 x14 +3 x21 +1 x22 +3 x23 +3 x24 +3 x27 +3 x28 +1 x29 +3 x30 +1 x31 +3 x33 +1 x34 +3 x39 +1 x40 +3 x41 +3 x42 +1 x47 +3 x51 +1 x52 +3 x55 +1 x56 +3 x59 +3 x60 = +1
 con12: +1 x7 +1 x12 +1 x14 +1 x22 +3 x24 +3 x28 +3 x30 +1 x32 +1 x34 +1 x40 +3 x42 +1 x48 +1 x52 +1 x56 +3 x60 +3 x69 +3 x76 +3 x82 +3 x84 +3 x90 +3 x96 +3 x98 +3 x103 +3 x105 +3 x110 +1 x111 = +1
 con13: +1 x1 +1 x2 +3 x3 +1 x7 +1 x8 +1 x19 +1 x20 +1 x31 +1 x32 +3 x33 +1 x34 +3 x35 +1 x36 +3 x37 +3 x38 +3 x63 +3 x64 +3 x65 +3 x66 +3 x74 +3 x75 +3 x76 +3 x77 +3 x78 +1 x79 +3 x80 = +1
 con14: +1 x1 +1 x2 +1 x7 +1 x11 +1 x12 +3 x13 +1 x14 +1 x31 +1 x32 +3 x33 +1 x34 +3 x39 +1 x40 +3 x41 +3 x42 +3 x63 +3 x74 +3 x75 +3 x76 +3 x88 +3 x89 +3 x90 +3 x102 +3 x103 +1 x104 +3 x105 = +1
 con15: +1 x1 +1 x11 +1 x12 +1 x19 +1 x20 +3 x25 +1 x26 +1 x31 +1 x32 +3 x35 +1 x36 +3 x39 +1 x40 +3 x43 +3 x44 +3 x64 +3 x74 +3 x77 +3 x78 +3 x88 +3 x91 +3 x92 +3 x102 +3 x103 +1 x106 +3 x107 = +1
 con16: +1 x2 +3 x3 +1 x8 +1 x11 +3 x13 +1 x14 +3 x15 +3 x16 +1 x19 +3 x25 +1 x26 +1 x31 +3 x33 +1 x34 +3 x35 +1 x36 +3 x37 +3 x38 +3 x39 +1 x40 +3 x41 +3 x42 +3 x43 +3 x44 +1 x45 +3 x46 = +1
 con17: +1 x7 +1 x8 +1 x12 +1 x14 +3 x16 +1 x20 +1 x26 +1 x32 +1 x34 +1 x36 +3 x38 +1 x40 +3 x42 +3 x44 +3 x46 +3 x66 +3 x76 +3 x78 +3 x80 +3 x90 +3 x92 +3 x94 +3 x103 +3 x105 +3 x107 +1 x108 = +1
 con18: +1 x1 +1 x19 +1 x20 +1 x31 +1 x32 +3 x35 +1 x36 +1 x47 +1 x48 +3 x49 +1 x50 +3 x51 +1 x52 +3 x53 +3 x54 +3 x64 +3 x67 +3 x70 +3 x71 +3 x74 +3 x77 +3 x78 +3 x81 +3 x82 +1 x85 +3 x86 = +1
 con19: +1 x1 +1 x11 +1 x12 +1 x19 +1 x20 +3 x25 +1 x26 +1 x47 +1 x48 +3 x49 +1 x50 +3 x55 +1 x56 +3 x57 +3 x58 +3 x64 +3 x67 +3 x70 +3 x71 +3 x88 +3 x91 +3 x92 +3 x95 +3 x96 +1 x99 +3 x100 = +1
 con20: +1 x1 +1 x11 +1 x12 +1 x31 +1 x32 +3 x39 +1 x40 +1 x47 +1 x48 +3 x51 +1 x52 +3 x55 +1 x56 +3 x59 +3 x60 +3 x67 +3 x74 +3 x81 +3 x82 +3 x88 +3 x95 +3 x96 +3 x102 +3 x103 +1 x109 +3 x110 = +1
 con21: +1 x11 +1 x19 +3 x25 +1 x26 +1 x31 +3 x35 +1 x36 +3 x39 +1 x40 +3 x43 +3 x44 +1 x47 +3 x49 +1 x50 +3 x51 +1 x52 +3 x53 +3 x54 +3 x55 +1 x56 +3 x57 +3 x58 +3 x59 +3 x60 +1 x61 +3 x62 = +1
 con22: +1 x12 +1 x20 +1 x26 +1 x32 +1 x36 +1 x40 +3 x44 +1 x48 +1 x50 +1 x52 +3 x54 +1 x56 +3 x58 +3 x60 +3 x62 +3 x71 +3 x78 +3 x82 +3 x86 +3 x92 +3 x96 +3 x100 +3 x103 +3 x107 +3 x110 +1 x112 = +1
 con23: +3 x3 +6 x4 +3 x5 +3 x9 +6 x10 +3 x21 +6 x23 +3 x24 +3 x33 +3 x35 +6 x37 +3 x38 +3 x49 +3 x51 +6 x53 +3 x54 +3 x63 +3 x64 +6 x65 +3 x66 +3 x67 +6 x68 +3 x69 +6 x70 +3 x71 +3 x72 +6 x73 +3 x74 +6 x75 +3 x76 +6 x77 +3 x78 +3 x79 +6 x80 +6 x81 +3 x82 +3 x83 +6 x84 +3 x85 +6 x86 +3 x87 = +3
 con24: +3 x3 +6 x4 +3 x9 +3 x13 +6 x15 +3 x16 +3 x17 +6 x18 +3 x21 +3 x25 +6 x27 +3 x28 +3 x49 +3 x55 +6 x57 +3 x58 +3 x63 +3 x64 +6 x65 +3 x66 +3 x67 +6 x68 +3 x69 +6 x70 +3 x71 +3 x72 +6 x73 +3 x88 +6 x89 +3 x90 +6 x91 +3 x92 +3 x93 +6 x94 +6 x95 +3 x96 +3 x97 +6 x98 +3 x99 +6 x100 +3 x101 = +3
 con25: +3 x3 +3 x13 +6 x15 +3 x16 +3 x25 +3 x33 +3 x35 +6 x37 +3 x38 +3 x39 +6 x41 +3 x42 +6 x43 +3 x44 +3 x45 +6 x46 +3 x63 +3 x64 +6 x65 +3 x66 +3 x74 +6 x75 +3 x76 +6 x77 +3 x78 +3 x79 +6 x80 +3 x88 +6 x89 +3 x90 +6 x91 +3 x92 +3 x93 +6 x94 +6 x102 +3 x103 +3 x104 +6 x105 +3 x106 +6 x107 +3 x108 = +3
 con26: +3 x13 +3 x21 +6 x23 +3 x24 +6 x27 +3 x28 +3 x29 +6 x30 +3 x33 +3 x39 +6 x41 +3 x42 +3 x51 +3 x55 +6 x59 +3 x60 +3 x63 +3 x67 +6 x68 +3 x69 +3 x74 +6 x75 +3 x76 +6 x81 +3 x82 +3 x83 +6 x84 +3 x88 +6 x89 +3 x90 +6 x95 +3 x96 +3 x97 +6 x98 +6 x102 +3 x103 +3 x104 +6 x105 +3 x109 +6 x110 +3 x111 = +3
 con27: +3 x25 +3 x35 +3 x39 +6 x43 +3 x44 +3 x49 +3 x51 +6 x53 +3 x54 +3 x55 +6 x57 +3 x58 +6 x59 +3 x60 +3 x61 +6 x62 +3 x64 +3 x67 +6 x70 +3 x71 +3 x74 +6 x77 +3 x78 +6 x81 +3 x82 +3 x85 +6 x86 +3 x88 +6 x91 +3 x92 +6 x95 +3 x96 +3 x99 +6 x100 +6 x102 +3 x103 +3 x106 +6 x107 +3 x109 +6 x110 +3 x112 = +3
 con28: +3 x4 +3 x5 +3 x6 +3 x10 +3 x15 +3 x17 +3 x18 +3 x23 +3 x27 +3 x29 +3 x30 +3 x37 +3 x41 +3 x43 +3 x45 +3 x46 +3 x53 +3 x57 +3 x59 +3 x61 +3 x62 +3 x65 +3 x68 +3 x70 +3 x72 +3 x73 +3 x75 +3 x77 +3 x79 +3 x80 +3 x81 +3 x83 +3 x84 +3 x85 +3 x86 +3 x87 +3 x89 +3 x91 +3 x93 +3 x94 +3 x95 +3 x97 +3 x98 +3 x99 +3 x100 +3 x101 +3 x102 +3 x104 +3 x105 +3 x106 +3 x107 +3 x108 +3 x109 +3 x110 +3 x111 +3 x112 = +3
 con29: +3 x6 +3 x9 +6 x10 +3 x16 +6 x18 +3 x24 +3 x28 +6 x30 +3 x38 +3 x42 +3 x44 +6 x46 +3 x54 +3 x58 +3 x60 +6 x62 +3 x66 +3 x69 +3 x71 +6 x73 +3 x76 +3 x78 +6 x80 +3 x82 +6 x84 +6 x86 +3 x87 +3 x90 +3 x92 +6 x94 +3 x96 +6 x98 +6 x100 +3 x101 +3 x103 +6 x105 +6 x107 +3 x108 +6 x110 +3 x111 +3 x112 = +3
 con30: +1 x3 -1 x65 -1 x113 = +0
 con31: +1 x4 -1 x72 -1 x114 = +0
 con32: +1 x8 -1 x66 -1 x115 = +0
 con33: +1 x13 -1 x89 -1 x116 = +0
 con34: +1 x16 -1 x94 -1 x117 = +0
 con35: +1 x22 -1 x69 -1 x118 = +0
 con36: +1 x23 -1 x83 -1 x119 = +0
 con37: +1 x25 -1 x91 -1 x120 = +0
 con38: +1 x28 -1 x98 -1 x121 = +0
 con39: +1 x34 -1 x76 -1 x122 = +0
 con40: +1 x38 -1 x80 -1 x123 = +0
 con41: +1 x39 -1 x102 -1 x124 = +0
 con42: +1 x41 -1 x104 -1 x125 = +0
 con43: +1 x42 -1 x105 -1 x126 = +0
 con44: +1 x44 -1 x107 -1 x127 = +0
 con45: +1 x49 -1 x70 -1 x128 = +0
 con46: +1 x52 -1 x82 -1 x129 = +0
 con47: +1 x53 -1 x85 -1 x130 = +0
 con48: +1 x54 -1 x86 -1 x131 = +0
 con49: +1 x58 -1 x100 -1 x132 = +0
 con50: +1 x59 -1 x109 -1 x133 = +0
bounds
 +0 <= x1 <= +1
 +0 <= x2 <= +0
 +0 <= x3 <= +1
 +0 <= x4 <= +1
 +0 <= x5 <= +0
 +0 <= x6 <= +0
 +0 <= x7 <= +0
 +0 <= x8 <= +0
 +0 <= x9 <= +0
 +0 <= x10 <= +0
 +0 <= x11 <= +0
 +0 <= x12 <= +0
 +0 <= x13 <= +1
 +0 <= x14 <= +0
 +0 <= x15 <= +0
 +0 <= x16 <= +1
 +0 <= x17 <= +0
 +0 <= x18 <= +0
 +0 <= x19 <= +0
 +0 <= x20 <= +0
 +0 <= x21 <= +0
 +0 <= x22 <= +1
 +0 <= x23 <= +1
 +0 <= x24 <= +0
 +0 <= x25 <= +1
 +0 <= x26 <= +0
 +0 <= x27 <= +0
 +0 <= x28 <= +1
 +0 <= x29 <= +0
 +0 <= x30 <= +0
 +0 <= x31 <= +0
 +0 <= x32 <= +0
 +0 <= x33 <= +0
 +0 <= x34 <= +1
 +0 <= x35 <= +0
 +0 <= x36 <= +0
 +0 <= x37 <= +0
 +0 <= x38 <= +1
 +0 <= x39 <= +1
 +0 <= x40 <= +0
 +0 <= x41 <= +1
 +0 <= x42 <= +1
 +0 <= x43 <= +0
 +0 <= x44 <= +1
 +0 <= x45 <= +0
 +0 <= x46 <= +0
 +0 <= x47 <= +0
 +0 <= x48 <= +0
 +0 <= x49 <= +1
 +0 <= x50 <= +0
 +0 <= x51 <= +0
 +0 <= x52 <= +1
 +0 <= x53 <= +1
 +0 <= x54 <= +1
 +0 <= x55 <= +0
 +0 <= x56 <= +0
 +0 <= x57 <= +0
 +0 <= x58 <= +1
 +0 <= x59 <= +1
 +0 <= x60 <= +0
 +0 <= x61 <= +0
 +0 <= x62 <= +0
 +0 <= x63 <= +0
 +0 <= x64 <= +0
 +0 <= x65 <= +1
 +0 <= x66 <= +0
 +0 <= x67 <= +0
 +0 <= x68 <= +0
 +0 <= x69 <= +1
 +0 <= x70 <= +1
 +0 <= x71 <= +0
 +0 <= x72 <= +1
 +0 <= x73 <= +0
 +0 <= x74 <= +0
 +0 <= x75 <= +0
 +0 <= x76 <= +1
 +0 <= x77 <= +0
 +0 <= x78 <= +0
 +0 <= x79 <= +0
 +0 <= x80 <= +1
 +0 <= x81 <= +0
 +0 <= x82 <= +1
 +0 <= x83 <= +1
 +0 <= x84 <= +0
 +0 <= x85 <= +1
 +0 <= x86 <= +1
 +0 <= x87 <= +0
 +0 <= x88 <= +0
 +0 <= x89 <= +1
 +0 <= x90 <= +0
 +0 <= x91 <= +1
 +0 <= x92 <= +0
 +0 <= x93 <= +0
 +0 <= x94 <= +1
 +0 <= x95 <= +0
 +0 <= x96 <= +0
 +0 <= x97 <= +0
 +0 <= x98 <= +1
 +0 <= x99 <= +0
 +0 <= x100 <= +1
 +0 <= x101 <= +0
 +0 <= x102 <= +1
 +0 <= x103 <= +0
 +0 <= x104 <= +1
 +0 <= x105 <= +1
 +0 <= x106 <= +0
 +0 <= x107 <= +1
 +0 <= x108 <= +0
 +0 <= x109 <= +1
 +0 <= x110 <= +0
 +0 <= x111 <= +0
 +0 <= x112 <= +0
 +0 <= x113 <= +0
 +0 <= x114 <= +0
 +0 <= x115 <= +0
 +0 <= x116 <= +0
 +0 <= x117 <= +0
 +0 <= x118 <= +0
 +0 <= x119 <= +0
 +0 <= x120 <= +0
 +0 <= x121 <= +0
 +0 <= x122 <= +0
 +0 <= x123 <= +0
 +0 <= x124 <= +0
 +0 <= x125 <= +0
 +0 <= x126 <= +0
 +0 <= x127 <= +0
 +0 <= x128 <= +0
 +0 <= x129 <= +0
 +0 <= x130 <= +0
 +0 <= x131 <= +0
 +0 <= x132 <= +0
 +0 <= x133 <= +0
binary
general
semi
end
